BAYES
676
2 2 2 2 2 2 2 2 2 2 2 2 2 2 2 2 2 2 2 2 2 2 2 2 2 2 2 2 2 2 2 2 2 2 2 2 2 2 2 2 2 2 2 2 2 2 2 2 2 2 2 2 2 2 2 2 2 2 2 2 2 2 2 2 2 2 2 2 2 2 2 2 2 2 2 2 2 2 2 2 2 2 2 2 2 2 2 2 2 2 2 2 2 2 2 2 2 2 2 2 2 2 2 2 2 2 2 2 2 2 2 2 2 2 2 2 2 2 2 2 2 2 2 2 2 2 2 2 2 2 2 2 2 2 2 2 2 2 2 2 2 2 2 2 2 2 2 2 2 2 2 2 2 2 2 2 2 2 2 2 2 2 2 2 2 2 2 2 2 2 2 2 2 2 2 2 2 2 2 2 2 2 2 2 2 2 2 2 2 2 2 2 2 2 2 2 2 2 2 2 2 2 2 2 2 2 2 2 2 2 2 2 2 2 2 2 2 2 2 2 2 2 2 2 2 2 2 2 2 2 2 2 2 2 2 2 2 2 2 2 2 2 2 2 2 2 2 2 2 2 2 2 2 2 2 2 2 2 2 2 2 2 2 2 2 2 2 2 2 2 2 2 2 2 2 2 2 2 2 2 2 2 2 2 2 2 2 2 2 2 2 2 2 2 2 2 2 2 2 2 2 2 2 2 2 2 2 2 2 2 2 2 2 2 2 2 2 2 2 2 2 2 2 2 2 2 2 2 2 2 2 2 2 2 2 2 2 2 2 2 2 2 2 2 2 2 2 2 2 2 2 2 2 2 2 2 2 2 2 2 2 2 2 2 2 2 2 2 2 2 2 2 2 2 2 2 2 2 2 2 2 2 2 2 2 2 2 2 2 2 2 2 2 2 2 2 2 2 2 2 2 2 2 2 2 2 2 2 2 2 2 2 2 2 2 2 2 2 2 2 2 2 2 2 2 2 2 2 2 2 2 2 2 2 2 2 2 2 2 2 2 2 2 2 2 2 2 2 2 2 2 2 2 2 2 2 2 2 2 2 2 2 2 2 2 2 2 2 2 2 2 2 2 2 2 2 2 2 2 2 2 2 2 2 2 2 2 2 2 2 2 2 2 2 2 2 2 2 2 2 2 2 2 2 2 2 2 2 2 2 2 2 2 2 2 2 2 2 2 2 2 2 2 2 2 2 2 2 2 2 2 2 2 2 2 2 2 2 2 2 2 2 2 2 2 2 2 2 2 2 2 2 2 2 2 2 2 2 2 2 2 2 2 2 2 2 2 2 2 2 2 2 2 2 2 2 2 2 2 2 2 2 2 2 2 2 2 2 2 2 2 2 2 2 2 2 2 2 2 2 2 2 2 2 2 2 2 2 2 2 2 2 2 2 2 2 2 2 2 2 2 2 2 2 2 2 2 2 2 2 2 2 2 2 2 2 2 2 2 2 2 2 2 2 2 2 2 2 2 2 2 2 2 2 2 2 2 2 2 2 2 2 2 2 2 2 2 2 2 2 2 2 2 2 2 2
676
1 0
2 0 1
2 1 2
2 2 3
2 3 4
2 4 5
2 5 6
2 6 7
2 7 8
2 8 9
2 9 10
2 10 11
2 11 12
2 12 13
2 13 14
2 14 15
2 15 16
2 16 17
2 17 18
2 18 19
2 19 20
2 20 21
2 21 22
2 22 23
2 23 24
2 24 25
2 0 26
3 1 26 27
3 2 27 28
3 3 28 29
3 4 29 30
3 5 30 31
3 6 31 32
3 7 32 33
3 8 33 34
3 9 34 35
3 10 35 36
3 11 36 37
3 12 37 38
3 13 38 39
3 14 39 40
3 15 40 41
3 16 41 42
3 17 42 43
3 18 43 44
3 19 44 45
3 20 45 46
3 21 46 47
3 22 47 48
3 23 48 49
3 24 49 50
3 25 50 51
2 26 52
3 27 52 53
3 28 53 54
3 29 54 55
3 30 55 56
3 31 56 57
3 32 57 58
3 33 58 59
3 34 59 60
3 35 60 61
3 36 61 62
3 37 62 63
3 38 63 64
3 39 64 65
3 40 65 66
3 41 66 67
3 42 67 68
3 43 68 69
3 44 69 70
3 45 70 71
3 46 71 72
3 47 72 73
3 48 73 74
3 49 74 75
3 50 75 76
3 51 76 77
2 52 78
3 53 78 79
3 54 79 80
3 55 80 81
3 56 81 82
3 57 82 83
3 58 83 84
3 59 84 85
3 60 85 86
3 61 86 87
3 62 87 88
3 63 88 89
3 64 89 90
3 65 90 91
3 66 91 92
3 67 92 93
3 68 93 94
3 69 94 95
3 70 95 96
3 71 96 97
3 72 97 98
3 73 98 99
3 74 99 100
3 75 100 101
3 76 101 102
3 77 102 103
2 78 104
3 79 104 105
3 80 105 106
3 81 106 107
3 82 107 108
3 83 108 109
3 84 109 110
3 85 110 111
3 86 111 112
3 87 112 113
3 88 113 114
3 89 114 115
3 90 115 116
3 91 116 117
3 92 117 118
3 93 118 119
3 94 119 120
3 95 120 121
3 96 121 122
3 97 122 123
3 98 123 124
3 99 124 125
3 100 125 126
3 101 126 127
3 102 127 128
3 103 128 129
2 104 130
3 105 130 131
3 106 131 132
3 107 132 133
3 108 133 134
3 109 134 135
3 110 135 136
3 111 136 137
3 112 137 138
3 113 138 139
3 114 139 140
3 115 140 141
3 116 141 142
3 117 142 143
3 118 143 144
3 119 144 145
3 120 145 146
3 121 146 147
3 122 147 148
3 123 148 149
3 124 149 150
3 125 150 151
3 126 151 152
3 127 152 153
3 128 153 154
3 129 154 155
2 130 156
3 131 156 157
3 132 157 158
3 133 158 159
3 134 159 160
3 135 160 161
3 136 161 162
3 137 162 163
3 138 163 164
3 139 164 165
3 140 165 166
3 141 166 167
3 142 167 168
3 143 168 169
3 144 169 170
3 145 170 171
3 146 171 172
3 147 172 173
3 148 173 174
3 149 174 175
3 150 175 176
3 151 176 177
3 152 177 178
3 153 178 179
3 154 179 180
3 155 180 181
2 156 182
3 157 182 183
3 158 183 184
3 159 184 185
3 160 185 186
3 161 186 187
3 162 187 188
3 163 188 189
3 164 189 190
3 165 190 191
3 166 191 192
3 167 192 193
3 168 193 194
3 169 194 195
3 170 195 196
3 171 196 197
3 172 197 198
3 173 198 199
3 174 199 200
3 175 200 201
3 176 201 202
3 177 202 203
3 178 203 204
3 179 204 205
3 180 205 206
3 181 206 207
2 182 208
3 183 208 209
3 184 209 210
3 185 210 211
3 186 211 212
3 187 212 213
3 188 213 214
3 189 214 215
3 190 215 216
3 191 216 217
3 192 217 218
3 193 218 219
3 194 219 220
3 195 220 221
3 196 221 222
3 197 222 223
3 198 223 224
3 199 224 225
3 200 225 226
3 201 226 227
3 202 227 228
3 203 228 229
3 204 229 230
3 205 230 231
3 206 231 232
3 207 232 233
2 208 234
3 209 234 235
3 210 235 236
3 211 236 237
3 212 237 238
3 213 238 239
3 214 239 240
3 215 240 241
3 216 241 242
3 217 242 243
3 218 243 244
3 219 244 245
3 220 245 246
3 221 246 247
3 222 247 248
3 223 248 249
3 224 249 250
3 225 250 251
3 226 251 252
3 227 252 253
3 228 253 254
3 229 254 255
3 230 255 256
3 231 256 257
3 232 257 258
3 233 258 259
2 234 260
3 235 260 261
3 236 261 262
3 237 262 263
3 238 263 264
3 239 264 265
3 240 265 266
3 241 266 267
3 242 267 268
3 243 268 269
3 244 269 270
3 245 270 271
3 246 271 272
3 247 272 273
3 248 273 274
3 249 274 275
3 250 275 276
3 251 276 277
3 252 277 278
3 253 278 279
3 254 279 280
3 255 280 281
3 256 281 282
3 257 282 283
3 258 283 284
3 259 284 285
2 260 286
3 261 286 287
3 262 287 288
3 263 288 289
3 264 289 290
3 265 290 291
3 266 291 292
3 267 292 293
3 268 293 294
3 269 294 295
3 270 295 296
3 271 296 297
3 272 297 298
3 273 298 299
3 274 299 300
3 275 300 301
3 276 301 302
3 277 302 303
3 278 303 304
3 279 304 305
3 280 305 306
3 281 306 307
3 282 307 308
3 283 308 309
3 284 309 310
3 285 310 311
2 286 312
3 287 312 313
3 288 313 314
3 289 314 315
3 290 315 316
3 291 316 317
3 292 317 318
3 293 318 319
3 294 319 320
3 295 320 321
3 296 321 322
3 297 322 323
3 298 323 324
3 299 324 325
3 300 325 326
3 301 326 327
3 302 327 328
3 303 328 329
3 304 329 330
3 305 330 331
3 306 331 332
3 307 332 333
3 308 333 334
3 309 334 335
3 310 335 336
3 311 336 337
2 312 338
3 313 338 339
3 314 339 340
3 315 340 341
3 316 341 342
3 317 342 343
3 318 343 344
3 319 344 345
3 320 345 346
3 321 346 347
3 322 347 348
3 323 348 349
3 324 349 350
3 325 350 351
3 326 351 352
3 327 352 353
3 328 353 354
3 329 354 355
3 330 355 356
3 331 356 357
3 332 357 358
3 333 358 359
3 334 359 360
3 335 360 361
3 336 361 362
3 337 362 363
2 338 364
3 339 364 365
3 340 365 366
3 341 366 367
3 342 367 368
3 343 368 369
3 344 369 370
3 345 370 371
3 346 371 372
3 347 372 373
3 348 373 374
3 349 374 375
3 350 375 376
3 351 376 377
3 352 377 378
3 353 378 379
3 354 379 380
3 355 380 381
3 356 381 382
3 357 382 383
3 358 383 384
3 359 384 385
3 360 385 386
3 361 386 387
3 362 387 388
3 363 388 389
2 364 390
3 365 390 391
3 366 391 392
3 367 392 393
3 368 393 394
3 369 394 395
3 370 395 396
3 371 396 397
3 372 397 398
3 373 398 399
3 374 399 400
3 375 400 401
3 376 401 402
3 377 402 403
3 378 403 404
3 379 404 405
3 380 405 406
3 381 406 407
3 382 407 408
3 383 408 409
3 384 409 410
3 385 410 411
3 386 411 412
3 387 412 413
3 388 413 414
3 389 414 415
2 390 416
3 391 416 417
3 392 417 418
3 393 418 419
3 394 419 420
3 395 420 421
3 396 421 422
3 397 422 423
3 398 423 424
3 399 424 425
3 400 425 426
3 401 426 427
3 402 427 428
3 403 428 429
3 404 429 430
3 405 430 431
3 406 431 432
3 407 432 433
3 408 433 434
3 409 434 435
3 410 435 436
3 411 436 437
3 412 437 438
3 413 438 439
3 414 439 440
3 415 440 441
2 416 442
3 417 442 443
3 418 443 444
3 419 444 445
3 420 445 446
3 421 446 447
3 422 447 448
3 423 448 449
3 424 449 450
3 425 450 451
3 426 451 452
3 427 452 453
3 428 453 454
3 429 454 455
3 430 455 456
3 431 456 457
3 432 457 458
3 433 458 459
3 434 459 460
3 435 460 461
3 436 461 462
3 437 462 463
3 438 463 464
3 439 464 465
3 440 465 466
3 441 466 467
2 442 468
3 443 468 469
3 444 469 470
3 445 470 471
3 446 471 472
3 447 472 473
3 448 473 474
3 449 474 475
3 450 475 476
3 451 476 477
3 452 477 478
3 453 478 479
3 454 479 480
3 455 480 481
3 456 481 482
3 457 482 483
3 458 483 484
3 459 484 485
3 460 485 486
3 461 486 487
3 462 487 488
3 463 488 489
3 464 489 490
3 465 490 491
3 466 491 492
3 467 492 493
2 468 494
3 469 494 495
3 470 495 496
3 471 496 497
3 472 497 498
3 473 498 499
3 474 499 500
3 475 500 501
3 476 501 502
3 477 502 503
3 478 503 504
3 479 504 505
3 480 505 506
3 481 506 507
3 482 507 508
3 483 508 509
3 484 509 510
3 485 510 511
3 486 511 512
3 487 512 513
3 488 513 514
3 489 514 515
3 490 515 516
3 491 516 517
3 492 517 518
3 493 518 519
2 494 520
3 495 520 521
3 496 521 522
3 497 522 523
3 498 523 524
3 499 524 525
3 500 525 526
3 501 526 527
3 502 527 528
3 503 528 529
3 504 529 530
3 505 530 531
3 506 531 532
3 507 532 533
3 508 533 534
3 509 534 535
3 510 535 536
3 511 536 537
3 512 537 538
3 513 538 539
3 514 539 540
3 515 540 541
3 516 541 542
3 517 542 543
3 518 543 544
3 519 544 545
2 520 546
3 521 546 547
3 522 547 548
3 523 548 549
3 524 549 550
3 525 550 551
3 526 551 552
3 527 552 553
3 528 553 554
3 529 554 555
3 530 555 556
3 531 556 557
3 532 557 558
3 533 558 559
3 534 559 560
3 535 560 561
3 536 561 562
3 537 562 563
3 538 563 564
3 539 564 565
3 540 565 566
3 541 566 567
3 542 567 568
3 543 568 569
3 544 569 570
3 545 570 571
2 546 572
3 547 572 573
3 548 573 574
3 549 574 575
3 550 575 576
3 551 576 577
3 552 577 578
3 553 578 579
3 554 579 580
3 555 580 581
3 556 581 582
3 557 582 583
3 558 583 584
3 559 584 585
3 560 585 586
3 561 586 587
3 562 587 588
3 563 588 589
3 564 589 590
3 565 590 591
3 566 591 592
3 567 592 593
3 568 593 594
3 569 594 595
3 570 595 596
3 571 596 597
2 572 598
3 573 598 599
3 574 599 600
3 575 600 601
3 576 601 602
3 577 602 603
3 578 603 604
3 579 604 605
3 580 605 606
3 581 606 607
3 582 607 608
3 583 608 609
3 584 609 610
3 585 610 611
3 586 611 612
3 587 612 613
3 588 613 614
3 589 614 615
3 590 615 616
3 591 616 617
3 592 617 618
3 593 618 619
3 594 619 620
3 595 620 621
3 596 621 622
3 597 622 623
2 598 624
3 599 624 625
3 600 625 626
3 601 626 627
3 602 627 628
3 603 628 629
3 604 629 630
3 605 630 631
3 606 631 632
3 607 632 633
3 608 633 634
3 609 634 635
3 610 635 636
3 611 636 637
3 612 637 638
3 613 638 639
3 614 639 640
3 615 640 641
3 616 641 642
3 617 642 643
3 618 643 644
3 619 644 645
3 620 645 646
3 621 646 647
3 622 647 648
3 623 648 649
2 624 650
3 625 650 651
3 626 651 652
3 627 652 653
3 628 653 654
3 629 654 655
3 630 655 656
3 631 656 657
3 632 657 658
3 633 658 659
3 634 659 660
3 635 660 661
3 636 661 662
3 637 662 663
3 638 663 664
3 639 664 665
3 640 665 666
3 641 666 667
3 642 667 668
3 643 668 669
3 644 669 670
3 645 670 671
3 646 671 672
3 647 672 673
3 648 673 674
3 649 674 675

2
0.647686 0.352314
4
1.0 0.0 0.0 1.0
4
1.0 0.0 0.0 1.0
4
0.0 1.0 1.0 0.0
4
0.0 1.0 1.0 0.0
4
1.0 0.0 0.0 1.0
4
1.0 0.0 0.0 1.0
4
0.0 1.0 1.0 0.0
4
0.0 1.0 1.0 0.0
4
0.0 1.0 1.0 0.0
4
0.00952539 0.990475 0.404928 0.595072
4
0.0 1.0 1.0 0.0
4
1.0 0.0 0.0 1.0
4
0.0 1.0 1.0 0.0
4
0.0 1.0 1.0 0.0
4
1.0 0.0 0.0 1.0
4
0.136649 0.863351 0.856281 0.143719
4
1.0 0.0 0.0 1.0
4
0.0 1.0 1.0 0.0
4
0.0 1.0 1.0 0.0
4
1.0 0.0 0.0 1.0
4
1.0 0.0 0.0 1.0
4
1.0 0.0 0.0 1.0
4
0.0 1.0 1.0 0.0
4
0.0 1.0 1.0 0.0
4
1.0 0.0 0.0 1.0
4
0.0 1.0 1.0 0.0
8
0.551441 0.448559 0.0994232 0.900577 0.753405 0.246595 0.244144 0.755856
8
0.0 1.0 0.0 1.0 1.0 0.0 0.0 1.0
8
0.0 1.0 1.0 0.0 0.0 1.0 0.0 1.0
8
0.436856 0.563144 0.0840784 0.915922 0.608733 0.391267 0.94811 0.05189
8
0.0 1.0 1.0 0.0 1.0 0.0 0.0 1.0
8
0.339313 0.660687 0.198923 0.801077 0.45872 0.54128 0.43027 0.56973
8
0.0 1.0 0.0 1.0 1.0 0.0 0.0 1.0
8
0.0 1.0 1.0 0.0 0.0 1.0 1.0 0.0
8
0.0 1.0 1.0 0.0 0.0 1.0 0.0 1.0
8
0.279827 0.720173 0.907935 0.0920655 0.99082 0.00918045 0.88856 0.11144
8
0.0 1.0 0.0 1.0 1.0 0.0 1.0 0.0
8
0.0 1.0 1.0 0.0 1.0 0.0 0.0 1.0
8
0.0 1.0 0.0 1.0 0.0 1.0 1.0 0.0
8
0.0 1.0 0.0 1.0 1.0 0.0 1.0 0.0
8
0.0433171 0.956683 0.443516 0.556484 0.311342 0.688658 0.380826 0.619174
8
0.218083 0.781917 0.660652 0.339348 0.822529 0.177471 0.208903 0.791097
8
0.0 1.0 1.0 0.0 0.0 1.0 1.0 0.0
8
1.0 0.0 1.0 0.0 0.0 1.0 0.0 1.0
8
0.0 1.0 0.0 1.0 1.0 0.0 0.0 1.0
8
0.0 1.0 0.0 1.0 0.0 1.0 1.0 0.0
8
1.0 0.0 0.0 1.0 1.0 0.0 0.0 1.0
8
1.0 0.0 1.0 0.0 1.0 0.0 0.0 1.0
8
1.0 0.0 0.0 1.0 1.0 0.0 1.0 0.0
8
0.0 1.0 0.0 1.0 1.0 0.0 0.0 1.0
8
1.0 0.0 0.0 1.0 1.0 0.0 0.0 1.0
4
1.0 0.0 0.0 1.0
8
0.470641 0.529359 0.407211 0.592789 0.973571 0.0264288 0.544758 0.455242
8
0.0 1.0 1.0 0.0 1.0 0.0 0.0 1.0
8
0.0 1.0 1.0 0.0 0.0 1.0 0.0 1.0
8
1.0 0.0 0.0 1.0 1.0 0.0 0.0 1.0
8
0.0 1.0 0.0 1.0 0.0 1.0 1.0 0.0
8
1.0 0.0 0.0 1.0 1.0 0.0 0.0 1.0
8
0.0 1.0 1.0 0.0 0.0 1.0 1.0 0.0
8
0.183779 0.816221 0.779159 0.220841 0.412434 0.587566 0.651394 0.348606
8
1.0 0.0 1.0 0.0 0.0 1.0 1.0 0.0
8
0.0 1.0 0.0 1.0 1.0 0.0 0.0 1.0
8
0.0 1.0 1.0 0.0 0.0 1.0 1.0 0.0
8
0.0 1.0 1.0 0.0 1.0 0.0 0.0 1.0
8
0.0 1.0 0.0 1.0 0.0 1.0 1.0 0.0
8
1.0 0.0 1.0 0.0 1.0 0.0 0.0 1.0
8
0.0 1.0 1.0 0.0 0.0 1.0 1.0 0.0
8
0.0 1.0 1.0 0.0 1.0 0.0 0.0 1.0
8
1.0 0.0 0.0 1.0 1.0 0.0 1.0 0.0
8
1.0 0.0 1.0 0.0 1.0 0.0 0.0 1.0
8
0.0171531 0.982847 0.194071 0.805929 0.646966 0.353034 0.896599 0.103401
8
0.0 1.0 0.0 1.0 1.0 0.0 1.0 0.0
8
0.0 1.0 1.0 0.0 1.0 0.0 1.0 0.0
8
0.356628 0.643372 0.775124 0.224876 0.781899 0.218101 0.904012 0.0959881
8
0.0 1.0 0.0 1.0 0.0 1.0 1.0 0.0
8
1.0 0.0 0.0 1.0 0.0 1.0 1.0 0.0
8
0.0 1.0 1.0 0.0 1.0 0.0 0.0 1.0
4
1.0 0.0 0.0 1.0
8
0.0 1.0 0.0 1.0 0.0 1.0 1.0 0.0
8
0.0 1.0 1.0 0.0 0.0 1.0 0.0 1.0
8
1.0 0.0 0.0 1.0 0.0 1.0 0.0 1.0
8
1.0 0.0 0.0 1.0 1.0 0.0 0.0 1.0
8
0.0 1.0 0.0 1.0 1.0 0.0 1.0 0.0
8
0.117526 0.882474 0.122163 0.877837 0.45955 0.54045 0.859701 0.140299
8
1.0 0.0 0.0 1.0 0.0 1.0 0.0 1.0
8
0.0 1.0 1.0 0.0 1.0 0.0 0.0 1.0
8
1.0 0.0 0.0 1.0 1.0 0.0 1.0 0.0
8
0.0 1.0 1.0 0.0 0.0 1.0 0.0 1.0
8
0.0 1.0 1.0 0.0 1.0 0.0 1.0 0.0
8
0.0 1.0 0.0 1.0 1.0 0.0 0.0 1.0
8
1.0 0.0 0.0 1.0 0.0 1.0 1.0 0.0
8
1.0 0.0 0.0 1.0 0.0 1.0 1.0 0.0
8
0.0 1.0 0.0 1.0 1.0 0.0 1.0 0.0
8
1.0 0.0 1.0 0.0 0.0 1.0 1.0 0.0
8
0.0 1.0 1.0 0.0 1.0 0.0 0.0 1.0
8
1.0 0.0 0.0 1.0 1.0 0.0 0.0 1.0
8
1.0 0.0 1.0 0.0 0.0 1.0 1.0 0.0
8
1.0 0.0 0.0 1.0 0.0 1.0 1.0 0.0
8
1.0 0.0 1.0 0.0 1.0 0.0 0.0 1.0
8
0.0 1.0 1.0 0.0 0.0 1.0 0.0 1.0
8
0.0 1.0 1.0 0.0 0.0 1.0 1.0 0.0
8
0.0566818 0.943318 0.335152 0.664848 0.846076 0.153924 0.151968 0.848032
8
1.0 0.0 1.0 0.0 0.0 1.0 1.0 0.0
4
0.0 1.0 1.0 0.0
8
0.0 1.0 1.0 0.0 0.0 1.0 1.0 0.0
8
0.0 1.0 1.0 0.0 0.0 1.0 0.0 1.0
8
0.0 1.0 1.0 0.0 0.0 1.0 1.0 0.0
8
0.218537 0.781463 0.0772397 0.92276 0.844979 0.155021 0.275219 0.724781
8
0.0 1.0 0.0 1.0 1.0 0.0 1.0 0.0
8
1.0 0.0 0.0 1.0 0.0 1.0 1.0 0.0
8
1.0 0.0 1.0 0.0 0.0 1.0 0.0 1.0
8
1.0 0.0 0.0 1.0 0.0 1.0 1.0 0.0
8
1.0 0.0 0.0 1.0 1.0 0.0 1.0 0.0
8
1.0 0.0 0.0 1.0 1.0 0.0 0.0 1.0
8
0.0 1.0 0.0 1.0 0.0 1.0 1.0 0.0
8
1.0 0.0 0.0 1.0 1.0 0.0 0.0 1.0
8
0.0 1.0 1.0 0.0 1.0 0.0 0.0 1.0
8
1.0 0.0 0.0 1.0 1.0 0.0 0.0 1.0
8
0.0 1.0 1.0 0.0 0.0 1.0 0.0 1.0
8
0.0 1.0 1.0 0.0 0.0 1.0 0.0 1.0
8
1.0 0.0 0.0 1.0 1.0 0.0 0.0 1.0
8
0.0 1.0 1.0 0.0 0.0 1.0 0.0 1.0
8
0.0 1.0 1.0 0.0 1.0 0.0 0.0 1.0
8
1.0 0.0 1.0 0.0 0.0 1.0 0.0 1.0
8
1.0 0.0 1.0 0.0 0.0 1.0 0.0 1.0
8
0.0 1.0 1.0 0.0 1.0 0.0 0.0 1.0
8
0.0 1.0 0.0 1.0 0.0 1.0 1.0 0.0
8
1.0 0.0 0.0 1.0 1.0 0.0 1.0 0.0
8
1.0 0.0 0.0 1.0 1.0 0.0 0.0 1.0
4
0.0 1.0 1.0 0.0
8
0.0 1.0 1.0 0.0 1.0 0.0 1.0 0.0
8
1.0 0.0 0.0 1.0 1.0 0.0 1.0 0.0
8
0.490308 0.509692 0.698551 0.301449 0.710528 0.289472 0.28421 0.71579
8
1.0 0.0 0.0 1.0 1.0 0.0 0.0 1.0
8
1.0 0.0 1.0 0.0 0.0 1.0 1.0 0.0
8
0.0 1.0 0.0 1.0 1.0 0.0 0.0 1.0
8
0.0 1.0 1.0 0.0 1.0 0.0 0.0 1.0
8
1.0 0.0 1.0 0.0 0.0 1.0 0.0 1.0
8
0.0 1.0 1.0 0.0 0.0 1.0 0.0 1.0
8
0.113729 0.886271 0.318492 0.681508 0.0930948 0.906905 0.197766 0.802234
8
1.0 0.0 1.0 0.0 1.0 0.0 0.0 1.0
8
0.0 1.0 0.0 1.0 0.0 1.0 1.0 0.0
8
0.0 1.0 1.0 0.0 0.0 1.0 0.0 1.0
8
0.0 1.0 1.0 0.0 1.0 0.0 1.0 0.0
8
0.0 1.0 1.0 0.0 1.0 0.0 0.0 1.0
8
0.694013 0.305987 0.0774186 0.922581 0.31533 0.68467 0.787107 0.212893
8
0.0 1.0 0.0 1.0 0.0 1.0 1.0 0.0
8
0.0 1.0 1.0 0.0 1.0 0.0 0.0 1.0
8
0.0 1.0 0.0 1.0 1.0 0.0 0.0 1.0
8
0.0 1.0 0.0 1.0 0.0 1.0 1.0 0.0
8
0.0 1.0 0.0 1.0 1.0 0.0 1.0 0.0
8
0.0 1.0 0.0 1.0 1.0 0.0 1.0 0.0
8
0.0 1.0 1.0 0.0 1.0 0.0 1.0 0.0
8
0.0 1.0 1.0 0.0 1.0 0.0 1.0 0.0
8
1.0 0.0 1.0 0.0 1.0 0.0 0.0 1.0
4
1.0 0.0 0.0 1.0
8
1.0 0.0 1.0 0.0 0.0 1.0 1.0 0.0
8
1.0 0.0 0.0 1.0 1.0 0.0 1.0 0.0
8
0.0 1.0 0.0 1.0 1.0 0.0 0.0 1.0
8
0.0 1.0 1.0 0.0 1.0 0.0 1.0 0.0
8
0.0 1.0 0.0 1.0 0.0 1.0 1.0 0.0
8
1.0 0.0 0.0 1.0 0.0 1.0 0.0 1.0
8
0.0 1.0 1.0 0.0 1.0 0.0 0.0 1.0
8
0.0 1.0 1.0 0.0 1.0 0.0 0.0 1.0
8
1.0 0.0 0.0 1.0 0.0 1.0 1.0 0.0
8
1.0 0.0 0.0 1.0 1.0 0.0 1.0 0.0
8
1.0 0.0 1.0 0.0 1.0 0.0 0.0 1.0
8
1.0 0.0 0.0 1.0 1.0 0.0 1.0 0.0
8
0.0 1.0 1.0 0.0 0.0 1.0 1.0 0.0
8
1.0 0.0 1.0 0.0 0.0 1.0 1.0 0.0
8
0.748473 0.251527 0.622263 0.377737 0.695789 0.304211 0.834604 0.165396
8
1.0 0.0 1.0 0.0 0.0 1.0 0.0 1.0
8
0.0 1.0 0.0 1.0 1.0 0.0 1.0 0.0
8
1.0 0.0 1.0 0.0 0.0 1.0 0.0 1.0
8
0.0 1.0 1.0 0.0 0.0 1.0 0.0 1.0
8
0.0 1.0 0.0 1.0 1.0 0.0 1.0 0.0
8
0.0 1.0 1.0 0.0 1.0 0.0 0.0 1.0
8
0.0 1.0 0.0 1.0 0.0 1.0 1.0 0.0
8
1.0 0.0 1.0 0.0 0.0 1.0 0.0 1.0
8
0.0 1.0 1.0 0.0 1.0 0.0 1.0 0.0
8
1.0 0.0 1.0 0.0 0.0 1.0 0.0 1.0
4
0.0 1.0 1.0 0.0
8
0.0 1.0 1.0 0.0 1.0 0.0 0.0 1.0
8
0.0 1.0 1.0 0.0 0.0 1.0 0.0 1.0
8
0.748804 0.251196 0.465695 0.534305 0.710419 0.289581 0.272028 0.727972
8
0.0 1.0 0.0 1.0 1.0 0.0 1.0 0.0
8
0.0 1.0 1.0 0.0 0.0 1.0 0.0 1.0
8
1.0 0.0 0.0 1.0 0.0 1.0 0.0 1.0
8
0.0 1.0 0.0 1.0 0.0 1.0 1.0 0.0
8
1.0 0.0 1.0 0.0 1.0 0.0 0.0 1.0
8
0.0 1.0 1.0 0.0 1.0 0.0 0.0 1.0
8
0.0 1.0 0.0 1.0 1.0 0.0 1.0 0.0
8
1.0 0.0 1.0 0.0 0.0 1.0 1.0 0.0
8
0.986227 0.0137733 0.699788 0.300212 0.29535 0.70465 0.562333 0.437667
8
0.566834 0.433166 0.736471 0.263529 0.173298 0.826702 0.0661007 0.933899
8
1.0 0.0 1.0 0.0 1.0 0.0 0.0 1.0
8
1.0 0.0 1.0 0.0 0.0 1.0 0.0 1.0
8
1.0 0.0 0.0 1.0 1.0 0.0 1.0 0.0
8
0.961091 0.0389091 0.890616 0.109384 0.758025 0.241975 0.780228 0.219772
8
1.0 0.0 0.0 1.0 0.0 1.0 1.0 0.0
8
1.0 0.0 1.0 0.0 1.0 0.0 0.0 1.0
8
0.0 1.0 0.0 1.0 0.0 1.0 1.0 0.0
8
1.0 0.0 0.0 1.0 0.0 1.0 1.0 0.0
8
0.0 1.0 0.0 1.0 0.0 1.0 1.0 0.0
8
0.0 1.0 1.0 0.0 0.0 1.0 1.0 0.0
8
1.0 0.0 1.0 0.0 0.0 1.0 1.0 0.0
8
1.0 0.0 0.0 1.0 0.0 1.0 0.0 1.0
4
1.0 0.0 0.0 1.0
8
1.0 0.0 1.0 0.0 0.0 1.0 1.0 0.0
8
0.0 1.0 0.0 1.0 0.0 1.0 1.0 0.0
8
0.0 1.0 1.0 0.0 1.0 0.0 1.0 0.0
8
0.0 1.0 0.0 1.0 1.0 0.0 0.0 1.0
8
0.0 1.0 0.0 1.0 0.0 1.0 1.0 0.0
8
0.0 1.0 0.0 1.0 1.0 0.0 1.0 0.0
8
0.0 1.0 1.0 0.0 1.0 0.0 0.0 1.0
8
1.0 0.0 0.0 1.0 0.0 1.0 1.0 0.0
8
0.0 1.0 1.0 0.0 0.0 1.0 1.0 0.0
8
0.0 1.0 0.0 1.0 1.0 0.0 1.0 0.0
8
0.0 1.0 1.0 0.0 0.0 1.0 1.0 0.0
8
1.0 0.0 1.0 0.0 1.0 0.0 0.0 1.0
8
0.0 1.0 1.0 0.0 0.0 1.0 1.0 0.0
8
0.0 1.0 1.0 0.0 0.0 1.0 1.0 0.0
8
1.0 0.0 1.0 0.0 0.0 1.0 0.0 1.0
8
0.830194 0.169806 0.249677 0.750323 0.758693 0.241307 0.00129249 0.998708
8
0.328706 0.671294 0.0444574 0.955543 0.739223 0.260777 0.464956 0.535044
8
1.0 0.0 0.0 1.0 1.0 0.0 0.0 1.0
8
0.0 1.0 1.0 0.0 1.0 0.0 0.0 1.0
8
0.955142 0.0448582 0.528392 0.471608 0.713732 0.286268 0.47466 0.52534
8
0.150155 0.849845 0.138382 0.861618 0.833336 0.166664 0.82811 0.17189
8
0.0 1.0 1.0 0.0 0.0 1.0 1.0 0.0
8
1.0 0.0 0.0 1.0 1.0 0.0 0.0 1.0
8
1.0 0.0 1.0 0.0 1.0 0.0 0.0 1.0
8
1.0 0.0 0.0 1.0 1.0 0.0 1.0 0.0
4
0.410235 0.589765 0.029393 0.970607
8
1.0 0.0 1.0 0.0 0.0 1.0 1.0 0.0
8
1.0 0.0 1.0 0.0 0.0 1.0 1.0 0.0
8
0.0 1.0 0.0 1.0 1.0 0.0 0.0 1.0
8
0.0 1.0 0.0 1.0 1.0 0.0 1.0 0.0
8
0.0 1.0 1.0 0.0 1.0 0.0 1.0 0.0
8
0.0 1.0 0.0 1.0 1.0 0.0 0.0 1.0
8
0.0 1.0 1.0 0.0 1.0 0.0 0.0 1.0
8
0.0 1.0 1.0 0.0 1.0 0.0 1.0 0.0
8
1.0 0.0 0.0 1.0 0.0 1.0 1.0 0.0
8
0.0 1.0 1.0 0.0 1.0 0.0 0.0 1.0
8
1.0 0.0 1.0 0.0 0.0 1.0 0.0 1.0
8
1.0 0.0 1.0 0.0 0.0 1.0 1.0 0.0
8
0.0 1.0 0.0 1.0 1.0 0.0 0.0 1.0
8
0.0 1.0 1.0 0.0 1.0 0.0 1.0 0.0
8
0.0 1.0 0.0 1.0 1.0 0.0 0.0 1.0
8
1.0 0.0 0.0 1.0 1.0 0.0 0.0 1.0
8
0.688914 0.311086 0.366856 0.633144 0.720641 0.279359 0.135016 0.864984
8
0.550537 0.449463 0.248326 0.751674 0.801472 0.198528 0.464494 0.535506
8
0.0 1.0 0.0 1.0 1.0 0.0 1.0 0.0
8
1.0 0.0 1.0 0.0 0.0 1.0 0.0 1.0
8
1.0 0.0 0.0 1.0 1.0 0.0 1.0 0.0
8
1.0 0.0 0.0 1.0 0.0 1.0 0.0 1.0
8
1.0 0.0 1.0 0.0 0.0 1.0 1.0 0.0
8
0.0 1.0 0.0 1.0 0.0 1.0 1.0 0.0
8
1.0 0.0 0.0 1.0 1.0 0.0 0.0 1.0
4
0.0 1.0 1.0 0.0
8
1.0 0.0 0.0 1.0 1.0 0.0 1.0 0.0
8
1.0 0.0 0.0 1.0 0.0 1.0 1.0 0.0
8
1.0 0.0 1.0 0.0 0.0 1.0 0.0 1.0
8
0.131177 0.868823 0.919593 0.0804074 0.589129 0.410871 0.575896 0.424104
8
1.0 0.0 1.0 0.0 0.0 1.0 1.0 0.0
8
1.0 0.0 0.0 1.0 0.0 1.0 0.0 1.0
8
1.0 0.0 0.0 1.0 0.0 1.0 0.0 1.0
8
1.0 0.0 1.0 0.0 0.0 1.0 0.0 1.0
8
1.0 0.0 1.0 0.0 0.0 1.0 1.0 0.0
8
1.0 0.0 0.0 1.0 1.0 0.0 0.0 1.0
8
1.0 0.0 1.0 0.0 1.0 0.0 0.0 1.0
8
0.0 1.0 0.0 1.0 1.0 0.0 0.0 1.0
8
0.0 1.0 1.0 0.0 1.0 0.0 0.0 1.0
8
1.0 0.0 1.0 0.0 0.0 1.0 0.0 1.0
8
1.0 0.0 1.0 0.0 1.0 0.0 0.0 1.0
8
1.0 0.0 1.0 0.0 0.0 1.0 1.0 0.0
8
0.189909 0.810091 0.261561 0.738439 0.328583 0.671417 0.745728 0.254272
8
1.0 0.0 0.0 1.0 0.0 1.0 1.0 0.0
8
0.0 1.0 0.0 1.0 0.0 1.0 1.0 0.0
8
0.0 1.0 0.0 1.0 1.0 0.0 0.0 1.0
8
1.0 0.0 1.0 0.0 1.0 0.0 0.0 1.0
8
0.0 1.0 1.0 0.0 0.0 1.0 1.0 0.0
8
0.0 1.0 0.0 1.0 1.0 0.0 1.0 0.0
8
0.0 1.0 1.0 0.0 1.0 0.0 0.0 1.0
8
1.0 0.0 0.0 1.0 1.0 0.0 0.0 1.0
4
1.0 0.0 0.0 1.0
8
1.0 0.0 1.0 0.0 1.0 0.0 0.0 1.0
8
0.704024 0.295976 0.0876962 0.912304 0.0345354 0.965465 0.0659156 0.934084
8
0.0 1.0 0.0 1.0 1.0 0.0 0.0 1.0
8
0.558249 0.441751 0.703144 0.296856 0.271895 0.728105 0.873819 0.126181
8
1.0 0.0 1.0 0.0 1.0 0.0 0.0 1.0
8
0.0 1.0 1.0 0.0 1.0 0.0 0.0 1.0
8
0.0 1.0 1.0 0.0 1.0 0.0 1.0 0.0
8
1.0 0.0 1.0 0.0 1.0 0.0 0.0 1.0
8
1.0 0.0 1.0 0.0 0.0 1.0 0.0 1.0
8
0.0 1.0 1.0 0.0 0.0 1.0 0.0 1.0
8
1.0 0.0 0.0 1.0 1.0 0.0 1.0 0.0
8
0.0 1.0 1.0 0.0 1.0 0.0 0.0 1.0
8
1.0 0.0 0.0 1.0 1.0 0.0 0.0 1.0
8
1.0 0.0 1.0 0.0 1.0 0.0 0.0 1.0
8
1.0 0.0 0.0 1.0 1.0 0.0 1.0 0.0
8
0.737473 0.262527 0.789617 0.210383 0.0246489 0.975351 0.870052 0.129948
8
1.0 0.0 0.0 1.0 0.0 1.0 0.0 1.0
8
1.0 0.0 0.0 1.0 1.0 0.0 1.0 0.0
8
1.0 0.0 0.0 1.0 0.0 1.0 1.0 0.0
8
0.0 1.0 1.0 0.0 1.0 0.0 1.0 0.0
8
0.0 1.0 1.0 0.0 0.0 1.0 0.0 1.0
8
1.0 0.0 0.0 1.0 0.0 1.0 0.0 1.0
8
0.0 1.0 1.0 0.0 0.0 1.0 0.0 1.0
8
0.0 1.0 1.0 0.0 1.0 0.0 1.0 0.0
8
0.0 1.0 1.0 0.0 1.0 0.0 0.0 1.0
4
0.138161 0.861839 0.234421 0.765579
8
0.0 1.0 1.0 0.0 0.0 1.0 1.0 0.0
8
1.0 0.0 1.0 0.0 0.0 1.0 0.0 1.0
8
1.0 0.0 1.0 0.0 0.0 1.0 1.0 0.0
8
0.0 1.0 1.0 0.0 0.0 1.0 0.0 1.0
8
1.0 0.0 1.0 0.0 1.0 0.0 0.0 1.0
8
1.0 0.0 0.0 1.0 1.0 0.0 0.0 1.0
8
0.0 1.0 1.0 0.0 0.0 1.0 1.0 0.0
8
1.0 0.0 0.0 1.0 0.0 1.0 0.0 1.0
8
1.0 0.0 1.0 0.0 0.0 1.0 0.0 1.0
8
0.346427 0.653573 0.250278 0.749722 0.834699 0.165301 0.425921 0.574079
8
0.0 1.0 1.0 0.0 1.0 0.0 1.0 0.0
8
1.0 0.0 1.0 0.0 0.0 1.0 1.0 0.0
8
0.0 1.0 1.0 0.0 1.0 0.0 0.0 1.0
8
0.0 1.0 0.0 1.0 1.0 0.0 0.0 1.0
8
1.0 0.0 1.0 0.0 1.0 0.0 0.0 1.0
8
0.0 1.0 0.0 1.0 1.0 0.0 0.0 1.0
8
0.0917801 0.90822 0.129341 0.870659 0.262699 0.737301 0.736694 0.263306
8
0.253428 0.746572 0.25524 0.74476 0.637374 0.362626 0.0613178 0.938682
8
0.0 1.0 1.0 0.0 0.0 1.0 1.0 0.0
8
0.0 1.0 1.0 0.0 1.0 0.0 1.0 0.0
8
0.0 1.0 0.0 1.0 1.0 0.0 0.0 1.0
8
0.0 1.0 1.0 0.0 1.0 0.0 0.0 1.0
8
0.783206 0.216794 0.806882 0.193118 0.198898 0.801102 0.519901 0.480099
8
0.0 1.0 0.0 1.0 0.0 1.0 1.0 0.0
8
1.0 0.0 1.0 0.0 0.0 1.0 0.0 1.0
4
1.0 0.0 0.0 1.0
8
0.0 1.0 0.0 1.0 0.0 1.0 1.0 0.0
8
0.0 1.0 1.0 0.0 0.0 1.0 0.0 1.0
8
1.0 0.0 1.0 0.0 0.0 1.0 1.0 0.0
8
1.0 0.0 1.0 0.0 0.0 1.0 1.0 0.0
8
1.0 0.0 1.0 0.0 0.0 1.0 0.0 1.0
8
1.0 0.0 0.0 1.0 0.0 1.0 1.0 0.0
8
1.0 0.0 1.0 0.0 0.0 1.0 1.0 0.0
8
1.0 0.0 0.0 1.0 1.0 0.0 0.0 1.0
8
0.411574 0.588426 0.362322 0.637678 0.6746 0.3254 0.823256 0.176744
8
1.0 0.0 0.0 1.0 0.0 1.0 0.0 1.0
8
1.0 0.0 1.0 0.0 0.0 1.0 1.0 0.0
8
0.0 1.0 1.0 0.0 1.0 0.0 1.0 0.0
8
1.0 0.0 0.0 1.0 1.0 0.0 0.0 1.0
8
0.0 1.0 0.0 1.0 1.0 0.0 1.0 0.0
8
0.789184 0.210816 0.500735 0.499265 0.287769 0.712231 0.463783 0.536217
8
0.0 1.0 1.0 0.0 0.0 1.0 0.0 1.0
8
0.540391 0.459609 0.679377 0.320623 0.659367 0.340633 0.365655 0.634345
8
1.0 0.0 1.0 0.0 1.0 0.0 0.0 1.0
8
1.0 0.0 1.0 0.0 0.0 1.0 0.0 1.0
8
1.0 0.0 0.0 1.0 0.0 1.0 0.0 1.0
8
0.0 1.0 0.0 1.0 0.0 1.0 1.0 0.0
8
0.0 1.0 1.0 0.0 1.0 0.0 1.0 0.0
8
1.0 0.0 1.0 0.0 0.0 1.0 1.0 0.0
8
0.0 1.0 1.0 0.0 1.0 0.0 0.0 1.0
8
1.0 0.0 0.0 1.0 0.0 1.0 1.0 0.0
4
1.0 0.0 0.0 1.0
8
0.0 1.0 0.0 1.0 1.0 0.0 0.0 1.0
8
0.0 1.0 1.0 0.0 0.0 1.0 0.0 1.0
8
1.0 0.0 1.0 0.0 0.0 1.0 1.0 0.0
8
0.0 1.0 0.0 1.0 1.0 0.0 0.0 1.0
8
1.0 0.0 1.0 0.0 0.0 1.0 0.0 1.0
8
0.0 1.0 0.0 1.0 1.0 0.0 0.0 1.0
8
0.0 1.0 0.0 1.0 1.0 0.0 0.0 1.0
8
1.0 0.0 1.0 0.0 0.0 1.0 0.0 1.0
8
1.0 0.0 1.0 0.0 0.0 1.0 0.0 1.0
8
0.0 1.0 0.0 1.0 1.0 0.0 0.0 1.0
8
0.0 1.0 1.0 0.0 1.0 0.0 0.0 1.0
8
0.0 1.0 0.0 1.0 1.0 0.0 0.0 1.0
8
0.0 1.0 0.0 1.0 1.0 0.0 0.0 1.0
8
0.0 1.0 0.0 1.0 1.0 0.0 0.0 1.0
8
1.0 0.0 1.0 0.0 0.0 1.0 1.0 0.0
8
0.0 1.0 1.0 0.0 0.0 1.0 1.0 0.0
8
0.0 1.0 0.0 1.0 0.0 1.0 1.0 0.0
8
1.0 0.0 1.0 0.0 0.0 1.0 1.0 0.0
8
0.0 1.0 1.0 0.0 1.0 0.0 0.0 1.0
8
1.0 0.0 0.0 1.0 0.0 1.0 0.0 1.0
8
0.0 1.0 1.0 0.0 1.0 0.0 1.0 0.0
8
0.0 1.0 0.0 1.0 1.0 0.0 1.0 0.0
8
1.0 0.0 1.0 0.0 1.0 0.0 0.0 1.0
8
0.0 1.0 0.0 1.0 1.0 0.0 1.0 0.0
8
1.0 0.0 1.0 0.0 0.0 1.0 1.0 0.0
4
1.0 0.0 0.0 1.0
8
0.0 1.0 0.0 1.0 0.0 1.0 1.0 0.0
8
1.0 0.0 0.0 1.0 0.0 1.0 1.0 0.0
8
1.0 0.0 0.0 1.0 1.0 0.0 0.0 1.0
8
0.0 1.0 0.0 1.0 1.0 0.0 0.0 1.0
8
0.0248833 0.975117 0.869726 0.130274 0.544123 0.455877 0.901346 0.0986544
8
1.0 0.0 0.0 1.0 0.0 1.0 0.0 1.0
8
0.0 1.0 1.0 0.0 1.0 0.0 0.0 1.0
8
0.0 1.0 0.0 1.0 1.0 0.0 1.0 0.0
8
0.0 1.0 0.0 1.0 1.0 0.0 0.0 1.0
8
1.0 0.0 0.0 1.0 0.0 1.0 1.0 0.0
8
1.0 0.0 1.0 0.0 1.0 0.0 0.0 1.0
8
1.0 0.0 1.0 0.0 0.0 1.0 1.0 0.0
8
1.0 0.0 1.0 0.0 1.0 0.0 0.0 1.0
8
0.0 1.0 0.0 1.0 1.0 0.0 1.0 0.0
8
0.175541 0.824459 0.148712 0.851288 0.354251 0.645749 0.620548 0.379452
8
0.0 1.0 1.0 0.0 1.0 0.0 1.0 0.0
8
0.0 1.0 1.0 0.0 0.0 1.0 0.0 1.0
8
1.0 0.0 0.0 1.0 1.0 0.0 0.0 1.0
8
0.0 1.0 1.0 0.0 1.0 0.0 0.0 1.0
8
1.0 0.0 0.0 1.0 0.0 1.0 0.0 1.0
8
0.0 1.0 1.0 0.0 1.0 0.0 0.0 1.0
8
0.0 1.0 1.0 0.0 1.0 0.0 1.0 0.0
8
0.0 1.0 1.0 0.0 1.0 0.0 0.0 1.0
8
0.0 1.0 1.0 0.0 0.0 1.0 1.0 0.0
8
0.0 1.0 1.0 0.0 0.0 1.0 1.0 0.0
4
1.0 0.0 0.0 1.0
8
1.0 0.0 0.0 1.0 0.0 1.0 0.0 1.0
8
1.0 0.0 1.0 0.0 0.0 1.0 1.0 0.0
8
1.0 0.0 0.0 1.0 0.0 1.0 1.0 0.0
8
1.0 0.0 0.0 1.0 0.0 1.0 0.0 1.0
8
0.0 1.0 1.0 0.0 0.0 1.0 0.0 1.0
8
1.0 0.0 1.0 0.0 1.0 0.0 0.0 1.0
8
0.0 1.0 0.0 1.0 1.0 0.0 0.0 1.0
8
0.46743 0.53257 0.208358 0.791642 0.118191 0.881809 0.541778 0.458222
8
0.622894 0.377106 0.311837 0.688163 0.395452 0.604548 0.466639 0.533361
8
0.0 1.0 0.0 1.0 1.0 0.0 0.0 1.0
8
0.0 1.0 1.0 0.0 0.0 1.0 0.0 1.0
8
1.0 0.0 1.0 0.0 0.0 1.0 0.0 1.0
8
0.0 1.0 0.0 1.0 1.0 0.0 0.0 1.0
8
1.0 0.0 0.0 1.0 1.0 0.0 0.0 1.0
8
0.0 1.0 1.0 0.0 0.0 1.0 0.0 1.0
8
0.0 1.0 0.0 1.0 1.0 0.0 0.0 1.0
8
0.0 1.0 1.0 0.0 0.0 1.0 0.0 1.0
8
0.0 1.0 1.0 0.0 0.0 1.0 0.0 1.0
8
0.0 1.0 0.0 1.0 1.0 0.0 0.0 1.0
8
1.0 0.0 0.0 1.0 1.0 0.0 1.0 0.0
8
1.0 0.0 1.0 0.0 0.0 1.0 1.0 0.0
8
0.0 1.0 1.0 0.0 1.0 0.0 0.0 1.0
8
0.0 1.0 0.0 1.0 1.0 0.0 0.0 1.0
8
0.0 1.0 0.0 1.0 0.0 1.0 1.0 0.0
8
1.0 0.0 1.0 0.0 0.0 1.0 1.0 0.0
4
1.0 0.0 0.0 1.0
8
1.0 0.0 0.0 1.0 1.0 0.0 1.0 0.0
8
0.0 1.0 1.0 0.0 0.0 1.0 1.0 0.0
8
1.0 0.0 0.0 1.0 1.0 0.0 0.0 1.0
8
0.0 1.0 1.0 0.0 0.0 1.0 0.0 1.0
8
0.0 1.0 1.0 0.0 0.0 1.0 0.0 1.0
8
0.174082 0.825918 0.786898 0.213102 0.637558 0.362442 0.283099 0.716901
8
1.0 0.0 0.0 1.0 0.0 1.0 0.0 1.0
8
0.350941 0.649059 0.467422 0.532578 0.0958112 0.904189 0.196178 0.803822
8
1.0 0.0 0.0 1.0 1.0 0.0 0.0 1.0
8
1.0 0.0 0.0 1.0 0.0 1.0 1.0 0.0
8
1.0 0.0 1.0 0.0 0.0 1.0 0.0 1.0
8
0.0 1.0 1.0 0.0 1.0 0.0 1.0 0.0
8
1.0 0.0 0.0 1.0 1.0 0.0 0.0 1.0
8
1.0 0.0 0.0 1.0 0.0 1.0 1.0 0.0
8
1.0 0.0 0.0 1.0 0.0 1.0 0.0 1.0
8
0.0 1.0 1.0 0.0 1.0 0.0 1.0 0.0
8
0.0 1.0 1.0 0.0 0.0 1.0 0.0 1.0
8
0.0 1.0 0.0 1.0 1.0 0.0 1.0 0.0
8
1.0 0.0 1.0 0.0 0.0 1.0 1.0 0.0
8
0.0 1.0 1.0 0.0 1.0 0.0 1.0 0.0
8
0.0 1.0 1.0 0.0 0.0 1.0 0.0 1.0
8
1.0 0.0 1.0 0.0 0.0 1.0 0.0 1.0
8
0.0 1.0 1.0 0.0 0.0 1.0 0.0 1.0
8
0.0 1.0 1.0 0.0 1.0 0.0 1.0 0.0
8
0.0 1.0 0.0 1.0 0.0 1.0 1.0 0.0
4
0.0 1.0 1.0 0.0
8
0.0 1.0 1.0 0.0 0.0 1.0 0.0 1.0
8
0.0 1.0 0.0 1.0 0.0 1.0 1.0 0.0
8
0.0 1.0 1.0 0.0 0.0 1.0 1.0 0.0
8
0.45264 0.54736 0.945043 0.0549569 0.181494 0.818506 0.54252 0.45748
8
1.0 0.0 0.0 1.0 1.0 0.0 1.0 0.0
8
0.0 1.0 0.0 1.0 0.0 1.0 1.0 0.0
8
0.0 1.0 0.0 1.0 1.0 0.0 0.0 1.0
8
0.0 1.0 1.0 0.0 0.0 1.0 1.0 0.0
8
1.0 0.0 0.0 1.0 1.0 0.0 0.0 1.0
8
1.0 0.0 1.0 0.0 0.0 1.0 0.0 1.0
8
0.0 1.0 0.0 1.0 1.0 0.0 1.0 0.0
8
1.0 0.0 1.0 0.0 0.0 1.0 0.0 1.0
8
1.0 0.0 0.0 1.0 0.0 1.0 1.0 0.0
8
0.0 1.0 0.0 1.0 0.0 1.0 1.0 0.0
8
0.0 1.0 0.0 1.0 0.0 1.0 1.0 0.0
8
0.0 1.0 1.0 0.0 1.0 0.0 0.0 1.0
8
1.0 0.0 0.0 1.0 1.0 0.0 0.0 1.0
8
1.0 0.0 1.0 0.0 1.0 0.0 0.0 1.0
8
1.0 0.0 1.0 0.0 0.0 1.0 1.0 0.0
8
1.0 0.0 0.0 1.0 0.0 1.0 1.0 0.0
8
0.0 1.0 1.0 0.0 1.0 0.0 0.0 1.0
8
1.0 0.0 0.0 1.0 0.0 1.0 0.0 1.0
8
1.0 0.0 1.0 0.0 1.0 0.0 0.0 1.0
8
1.0 0.0 1.0 0.0 0.0 1.0 0.0 1.0
8
0.0 1.0 0.0 1.0 0.0 1.0 1.0 0.0
4
1.0 0.0 0.0 1.0
8
1.0 0.0 0.0 1.0 0.0 1.0 1.0 0.0
8
1.0 0.0 1.0 0.0 0.0 1.0 0.0 1.0
8
0.0 1.0 1.0 0.0 0.0 1.0 1.0 0.0
8
1.0 0.0 1.0 0.0 0.0 1.0 0.0 1.0
8
1.0 0.0 0.0 1.0 0.0 1.0 0.0 1.0
8
0.72719 0.27281 0.537541 0.462459 0.450029 0.549971 0.754728 0.245272
8
1.0 0.0 1.0 0.0 0.0 1.0 1.0 0.0
8
1.0 0.0 0.0 1.0 1.0 0.0 0.0 1.0
8
0.0 1.0 1.0 0.0 0.0 1.0 1.0 0.0
8
1.0 0.0 1.0 0.0 0.0 1.0 1.0 0.0
8
1.0 0.0 0.0 1.0 0.0 1.0 0.0 1.0
8
0.0120903 0.98791 0.870211 0.129789 0.360554 0.639446 0.766819 0.233181
8
1.0 0.0 0.0 1.0 1.0 0.0 0.0 1.0
8
1.0 0.0 0.0 1.0 0.0 1.0 1.0 0.0
8
0.0 1.0 0.0 1.0 0.0 1.0 1.0 0.0
8
1.0 0.0 1.0 0.0 0.0 1.0 1.0 0.0
8
0.0 1.0 1.0 0.0 1.0 0.0 0.0 1.0
8
0.0 1.0 0.0 1.0 0.0 1.0 1.0 0.0
8
1.0 0.0 1.0 0.0 0.0 1.0 1.0 0.0
8
0.0 1.0 0.0 1.0 1.0 0.0 0.0 1.0
8
1.0 0.0 1.0 0.0 1.0 0.0 0.0 1.0
8
0.0 1.0 1.0 0.0 1.0 0.0 1.0 0.0
8
1.0 0.0 0.0 1.0 0.0 1.0 1.0 0.0
8
0.0 1.0 1.0 0.0 0.0 1.0 1.0 0.0
8
1.0 0.0 0.0 1.0 1.0 0.0 1.0 0.0
4
1.0 0.0 0.0 1.0
8
1.0 0.0 0.0 1.0 1.0 0.0 0.0 1.0
8
0.0 1.0 1.0 0.0 0.0 1.0 1.0 0.0
8
1.0 0.0 0.0 1.0 0.0 1.0 0.0 1.0
8
1.0 0.0 0.0 1.0 0.0 1.0 0.0 1.0
8
0.0 1.0 0.0 1.0 1.0 0.0 1.0 0.0
8
1.0 0.0 0.0 1.0 1.0 0.0 0.0 1.0
8
0.815221 0.184779 0.228693 0.771307 0.284249 0.715751 0.167966 0.832034
8
1.0 0.0 1.0 0.0 0.0 1.0 0.0 1.0
8
0.0 1.0 0.0 1.0 0.0 1.0 1.0 0.0
8
0.0 1.0 1.0 0.0 0.0 1.0 0.0 1.0
8
0.0 1.0 0.0 1.0 0.0 1.0 1.0 0.0
8
0.0 1.0 0.0 1.0 1.0 0.0 0.0 1.0
8
0.0 1.0 1.0 0.0 0.0 1.0 1.0 0.0
8
1.0 0.0 0.0 1.0 1.0 0.0 1.0 0.0
8
1.0 0.0 0.0 1.0 1.0 0.0 1.0 0.0
8
0.0 1.0 0.0 1.0 1.0 0.0 0.0 1.0
8
1.0 0.0 0.0 1.0 1.0 0.0 0.0 1.0
8
1.0 0.0 1.0 0.0 0.0 1.0 1.0 0.0
8
1.0 0.0 1.0 0.0 0.0 1.0 0.0 1.0
8
1.0 0.0 1.0 0.0 0.0 1.0 1.0 0.0
8
1.0 0.0 0.0 1.0 0.0 1.0 1.0 0.0
8
0.0 1.0 1.0 0.0 1.0 0.0 0.0 1.0
8
0.887841 0.112159 0.616056 0.383944 0.0540837 0.945916 0.552154 0.447846
8
0.0 1.0 0.0 1.0 1.0 0.0 0.0 1.0
8
1.0 0.0 1.0 0.0 0.0 1.0 1.0 0.0
4
0.119463 0.880537 0.314057 0.685943
8
0.0 1.0 0.0 1.0 1.0 0.0 0.0 1.0
8
0.0 1.0 0.0 1.0 0.0 1.0 1.0 0.0
8
0.0 1.0 0.0 1.0 0.0 1.0 1.0 0.0
8
1.0 0.0 1.0 0.0 0.0 1.0 1.0 0.0
8
0.0 1.0 1.0 0.0 1.0 0.0 1.0 0.0
8
1.0 0.0 1.0 0.0 1.0 0.0 0.0 1.0
8
1.0 0.0 0.0 1.0 1.0 0.0 0.0 1.0
8
0.323871 0.676129 0.844332 0.155668 0.67347 0.32653 0.604934 0.395066
8
0.0 1.0 1.0 0.0 1.0 0.0 1.0 0.0
8
1.0 0.0 0.0 1.0 0.0 1.0 1.0 0.0
8
1.0 0.0 1.0 0.0 0.0 1.0 0.0 1.0
8
0.0 1.0 1.0 0.0 0.0 1.0 1.0 0.0
8
1.0 0.0 0.0 1.0 1.0 0.0 0.0 1.0
8
1.0 0.0 1.0 0.0 0.0 1.0 0.0 1.0
8
1.0 0.0 0.0 1.0 1.0 0.0 1.0 0.0
8
0.897914 0.102086 0.895394 0.104606 0.210053 0.789947 0.213498 0.786502
8
0.0 1.0 0.0 1.0 1.0 0.0 0.0 1.0
8
0.0 1.0 0.0 1.0 0.0 1.0 1.0 0.0
8
0.0 1.0 1.0 0.0 1.0 0.0 1.0 0.0
8
0.0 1.0 1.0 0.0 0.0 1.0 0.0 1.0
8
1.0 0.0 0.0 1.0 0.0 1.0 0.0 1.0
8
0.0 1.0 0.0 1.0 1.0 0.0 1.0 0.0
8
1.0 0.0 1.0 0.0 1.0 0.0 0.0 1.0
8
1.0 0.0 0.0 1.0 0.0 1.0 1.0 0.0
8
1.0 0.0 0.0 1.0 0.0 1.0 1.0 0.0
4
1.0 0.0 0.0 1.0
8
0.0 1.0 1.0 0.0 0.0 1.0 1.0 0.0
8
0.0 1.0 1.0 0.0 1.0 0.0 0.0 1.0
8
1.0 0.0 0.0 1.0 0.0 1.0 1.0 0.0
8
1.0 0.0 0.0 1.0 1.0 0.0 1.0 0.0
8
0.0 1.0 1.0 0.0 1.0 0.0 1.0 0.0
8
1.0 0.0 1.0 0.0 0.0 1.0 0.0 1.0
8
1.0 0.0 0.0 1.0 1.0 0.0 0.0 1.0
8
1.0 0.0 0.0 1.0 1.0 0.0 1.0 0.0
8
0.0 1.0 1.0 0.0 0.0 1.0 0.0 1.0
8
1.0 0.0 0.0 1.0 0.0 1.0 0.0 1.0
8
0.0 1.0 1.0 0.0 0.0 1.0 1.0 0.0
8
1.0 0.0 0.0 1.0 1.0 0.0 0.0 1.0
8
0.0 1.0 1.0 0.0 1.0 0.0 1.0 0.0
8
1.0 0.0 0.0 1.0 1.0 0.0 1.0 0.0
8
1.0 0.0 1.0 0.0 1.0 0.0 0.0 1.0
8
0.0 1.0 0.0 1.0 1.0 0.0 1.0 0.0
8
1.0 0.0 0.0 1.0 0.0 1.0 0.0 1.0
8
0.0 1.0 1.0 0.0 0.0 1.0 0.0 1.0
8
1.0 0.0 0.0 1.0 0.0 1.0 0.0 1.0
8
0.0 1.0 0.0 1.0 1.0 0.0 0.0 1.0
8
0.0 1.0 0.0 1.0 1.0 0.0 0.0 1.0
8
0.628817 0.371183 0.994859 0.00514068 0.225746 0.774254 0.289654 0.710346
8
0.0 1.0 1.0 0.0 0.0 1.0 0.0 1.0
8
1.0 0.0 0.0 1.0 1.0 0.0 0.0 1.0
8
0.0 1.0 1.0 0.0 1.0 0.0 0.0 1.0
4
1.0 0.0 0.0 1.0
8
0.0 1.0 0.0 1.0 1.0 0.0 0.0 1.0
8
1.0 0.0 0.0 1.0 0.0 1.0 0.0 1.0
8
0.0 1.0 1.0 0.0 1.0 0.0 0.0 1.0
8
0.0 1.0 1.0 0.0 0.0 1.0 1.0 0.0
8
0.0 1.0 0.0 1.0 0.0 1.0 1.0 0.0
8
1.0 0.0 0.0 1.0 0.0 1.0 0.0 1.0
8
1.0 0.0 0.0 1.0 0.0 1.0 0.0 1.0
8
0.0 1.0 0.0 1.0 1.0 0.0 0.0 1.0
8
0.0 1.0 0.0 1.0 1.0 0.0 1.0 0.0
8
1.0 0.0 1.0 0.0 0.0 1.0 1.0 0.0
8
0.0 1.0 1.0 0.0 0.0 1.0 0.0 1.0
8
0.0 1.0 0.0 1.0 1.0 0.0 0.0 1.0
8
0.0 1.0 1.0 0.0 1.0 0.0 1.0 0.0
8
1.0 0.0 0.0 1.0 1.0 0.0 0.0 1.0
8
1.0 0.0 0.0 1.0 1.0 0.0 0.0 1.0
8
0.0 1.0 1.0 0.0 1.0 0.0 1.0 0.0
8
1.0 0.0 1.0 0.0 1.0 0.0 0.0 1.0
8
0.827123 0.172877 0.919496 0.0805041 0.613684 0.386316 0.7212 0.2788
8
1.0 0.0 1.0 0.0 1.0 0.0 0.0 1.0
8
0.985874 0.0141265 0.807689 0.192311 0.196236 0.803764 0.51877 0.48123
8
1.0 0.0 0.0 1.0 0.0 1.0 1.0 0.0
8
0.0 1.0 1.0 0.0 0.0 1.0 1.0 0.0
8
0.0 1.0 1.0 0.0 0.0 1.0 1.0 0.0
8
0.0 1.0 1.0 0.0 1.0 0.0 1.0 0.0
8
1.0 0.0 0.0 1.0 0.0 1.0 1.0 0.0
4
0.0 1.0 1.0 0.0
8
1.0 0.0 0.0 1.0 1.0 0.0 1.0 0.0
8
1.0 0.0 0.0 1.0 1.0 0.0 1.0 0.0
8
1.0 0.0 1.0 0.0 0.0 1.0 1.0 0.0
8
0.0 1.0 1.0 0.0 1.0 0.0 0.0 1.0
8
0.0 1.0 0.0 1.0 1.0 0.0 1.0 0.0
8
1.0 0.0 0.0 1.0 1.0 0.0 1.0 0.0
8
0.0 1.0 1.0 0.0 0.0 1.0 1.0 0.0
8
0.0 1.0 1.0 0.0 0.0 1.0 1.0 0.0
8
1.0 0.0 1.0 0.0 1.0 0.0 0.0 1.0
8
0.353095 0.646905 0.86011 0.13989 0.705954 0.294046 0.527104 0.472896
8
1.0 0.0 0.0 1.0 1.0 0.0 0.0 1.0
8
1.0 0.0 0.0 1.0 0.0 1.0 1.0 0.0
8
1.0 0.0 1.0 0.0 0.0 1.0 0.0 1.0
8
1.0 0.0 0.0 1.0 0.0 1.0 0.0 1.0
8
0.0 1.0 1.0 0.0 0.0 1.0 0.0 1.0
8
1.0 0.0 0.0 1.0 1.0 0.0 0.0 1.0
8
0.0 1.0 0.0 1.0 0.0 1.0 1.0 0.0
8
0.0 1.0 1.0 0.0 1.0 0.0 1.0 0.0
8
0.0 1.0 0.0 1.0 1.0 0.0 0.0 1.0
8
1.0 0.0 1.0 0.0 1.0 0.0 0.0 1.0
8
1.0 0.0 0.0 1.0 0.0 1.0 0.0 1.0
8
1.0 0.0 0.0 1.0 0.0 1.0 1.0 0.0
8
1.0 0.0 0.0 1.0 0.0 1.0 0.0 1.0
8
0.0 1.0 1.0 0.0 1.0 0.0 1.0 0.0
8
0.0 1.0 1.0 0.0 0.0 1.0 0.0 1.0
4
1.0 0.0 0.0 1.0
8
0.0 1.0 0.0 1.0 1.0 0.0 0.0 1.0
8
1.0 0.0 0.0 1.0 0.0 1.0 0.0 1.0
8
0.0 1.0 0.0 1.0 0.0 1.0 1.0 0.0
8
1.0 0.0 1.0 0.0 0.0 1.0 1.0 0.0
8
0.506259 0.493741 0.961738 0.0382623 0.685001 0.314999 0.227694 0.772306
8
1.0 0.0 0.0 1.0 0.0 1.0 0.0 1.0
8
0.0 1.0 1.0 0.0 0.0 1.0 0.0 1.0
8
0.0 1.0 1.0 0.0 0.0 1.0 1.0 0.0
8
0.0 1.0 1.0 0.0 1.0 0.0 0.0 1.0
8
0.0 1.0 0.0 1.0 0.0 1.0 1.0 0.0
8
1.0 0.0 1.0 0.0 0.0 1.0 0.0 1.0
8
1.0 0.0 0.0 1.0 0.0 1.0 1.0 0.0
8
0.0 1.0 1.0 0.0 0.0 1.0 1.0 0.0
8
0.0 1.0 1.0 0.0 1.0 0.0 0.0 1.0
8
1.0 0.0 0.0 1.0 0.0 1.0 0.0 1.0
8
0.0 1.0 1.0 0.0 0.0 1.0 0.0 1.0
8
1.0 0.0 0.0 1.0 1.0 0.0 1.0 0.0
8
0.0 1.0 0.0 1.0 0.0 1.0 1.0 0.0
8
0.0 1.0 1.0 0.0 0.0 1.0 1.0 0.0
8
0.0 1.0 1.0 0.0 1.0 0.0 0.0 1.0
8
0.0 1.0 0.0 1.0 1.0 0.0 0.0 1.0
8
0.0 1.0 0.0 1.0 1.0 0.0 0.0 1.0
8
0.0 1.0 0.0 1.0 0.0 1.0 1.0 0.0
8
0.0 1.0 0.0 1.0 1.0 0.0 0.0 1.0
8
1.0 0.0 1.0 0.0 0.0 1.0 0.0 1.0